(set-logic ALL)
(declare-const BAV1 Bool)
(set-option :snorm-infer-eq true)
(declare-const r0 Real)
(declare-const r4 Real)
(assert (<= r4 (- (/ r0 r0))))
(assert (= BAV1 (<= r4 (- (/ r0 r0)))))
(check-sat)
(get-model)